
ASes= { 1, 2, 3, 4, 5, 6, 7, 8, 9, 10, 11 } ;


Objects= { 1, 2, 3, 4, 5, 6, 7, 8, 9, 10, 11, 12, 13, 14, 15, 16, 17, 18, 19, 20, 21, 22, 23, 24, 25, 26, 27, 28, 29, 30, 31, 32, 33, 34, 35, 36, 37, 38, 39, 40, 41, 42, 43, 44, 45, 46, 47, 48, 49, 50, 51, 52, 53, 54, 55, 56, 57, 58, 59, 60, 61, 62, 63, 64, 65, 66, 67, 68, 69, 70, 71, 72, 73, 74, 75, 76, 77, 78, 79, 80, 81, 82, 83, 84, 85, 86, 87, 88, 89, 90, 91, 92, 93, 94, 95, 96, 97, 98, 99, 100 } ;


QualityLevels= { 0, 1, 2, 3, 4, 5 } ;

Arcs = {<2,1,490000>, <1,2,490000>, <11,1,490000>, <1,11,490000>, <11,2,490000>, <2,11,490000>, <11,10,490000>, <10,11,490000>, <3,2,490000>, <2,3,490000>, <4,3,490000>, <3,4,490000>, <5,4,490000>, <4,5,490000>, <6,5,490000>, <5,6,490000>, <7,6,490000>, <6,7,490000>, <8,4,490000>, <4,8,490000>, <8,7,490000>, <7,8,490000>, <9,3,490000>, <3,9,490000>, <9,8,490000>, <8,9,490000>, <10,9,490000>, <9,10,490000>};


RatePerQuality= [ 0  300  700  1500  2500  3500 ] ;


CacheSpacePerQuality= [ 10000  11.25  26.25  56.25  93.75  131.25 ] ;


UtilityPerQuality= [ 0  0.2  0.4  0.6  0.8  1 ] ;


ObjectsPublishedByProducers=[ [ 0  0  0  0  0  0  0  1  0  0  0 ]  [ 0  0  0  0  0  0  0  1  0  0  0 ]  [ 0  0  0  0  0  0  0  1  0  0  0 ]  [ 0  0  0  0  0  0  0  1  0  0  0 ]  [ 0  0  0  0  0  0  0  1  0  0  0 ]  [ 0  0  0  0  0  0  0  1  0  0  0 ]  [ 0  0  0  0  0  0  0  1  0  0  0 ]  [ 0  0  0  0  0  0  0  1  0  0  0 ]  [ 0  0  0  0  0  0  0  1  0  0  0 ]  [ 0  0  0  0  0  0  0  1  0  0  0 ]  [ 0  0  0  0  0  0  0  1  0  0  0 ]  [ 0  0  0  0  0  0  0  1  0  0  0 ]  [ 0  0  0  0  0  0  0  1  0  0  0 ]  [ 0  0  0  0  0  0  0  1  0  0  0 ]  [ 0  0  0  0  0  0  0  1  0  0  0 ]  [ 0  0  0  0  0  0  0  1  0  0  0 ]  [ 0  0  0  0  0  0  0  1  0  0  0 ]  [ 0  0  0  0  0  0  0  1  0  0  0 ]  [ 0  0  0  0  0  0  0  1  0  0  0 ]  [ 0  0  0  0  0  0  0  1  0  0  0 ]  [ 0  0  0  0  0  0  0  1  0  0  0 ]  [ 0  0  0  0  0  0  0  1  0  0  0 ]  [ 0  0  0  0  0  0  0  1  0  0  0 ]  [ 0  0  0  0  0  0  0  1  0  0  0 ]  [ 0  0  0  0  0  0  0  1  0  0  0 ]  [ 0  0  0  0  0  0  0  1  0  0  0 ]  [ 0  0  0  0  0  0  0  1  0  0  0 ]  [ 0  0  0  0  0  0  0  1  0  0  0 ]  [ 0  0  0  0  0  0  0  1  0  0  0 ]  [ 0  0  0  0  0  0  0  1  0  0  0 ]  [ 0  0  0  0  0  0  0  1  0  0  0 ]  [ 0  0  0  0  0  0  0  1  0  0  0 ]  [ 0  0  0  0  0  0  0  1  0  0  0 ]  [ 0  0  0  0  0  0  0  1  0  0  0 ]  [ 0  0  0  0  0  0  0  1  0  0  0 ]  [ 0  0  0  0  0  0  0  1  0  0  0 ]  [ 0  0  0  0  0  0  0  1  0  0  0 ]  [ 0  0  0  0  0  0  0  1  0  0  0 ]  [ 0  0  0  0  0  0  0  1  0  0  0 ]  [ 0  0  0  0  0  0  0  1  0  0  0 ]  [ 0  0  0  0  0  0  0  1  0  0  0 ]  [ 0  0  0  0  0  0  0  1  0  0  0 ]  [ 0  0  0  0  0  0  0  1  0  0  0 ]  [ 0  0  0  0  0  0  0  1  0  0  0 ]  [ 0  0  0  0  0  0  0  1  0  0  0 ]  [ 0  0  0  0  0  0  0  1  0  0  0 ]  [ 0  0  0  0  0  0  0  1  0  0  0 ]  [ 0  0  0  0  0  0  0  1  0  0  0 ]  [ 0  0  0  0  0  0  0  1  0  0  0 ]  [ 0  0  0  0  0  0  0  1  0  0  0 ]  [ 0  0  0  0  0  0  0  1  0  0  0 ]  [ 0  0  0  0  0  0  0  1  0  0  0 ]  [ 0  0  0  0  0  0  0  1  0  0  0 ]  [ 0  0  0  0  0  0  0  1  0  0  0 ]  [ 0  0  0  0  0  0  0  1  0  0  0 ]  [ 0  0  0  0  0  0  0  1  0  0  0 ]  [ 0  0  0  0  0  0  0  1  0  0  0 ]  [ 0  0  0  0  0  0  0  1  0  0  0 ]  [ 0  0  0  0  0  0  0  1  0  0  0 ]  [ 0  0  0  0  0  0  0  1  0  0  0 ]  [ 0  0  0  0  0  0  0  1  0  0  0 ]  [ 0  0  0  0  0  0  0  1  0  0  0 ]  [ 0  0  0  0  0  0  0  1  0  0  0 ]  [ 0  0  0  0  0  0  0  1  0  0  0 ]  [ 0  0  0  0  0  0  0  1  0  0  0 ]  [ 0  0  0  0  0  0  0  1  0  0  0 ]  [ 0  0  0  0  0  0  0  1  0  0  0 ]  [ 0  0  0  0  0  0  0  1  0  0  0 ]  [ 0  0  0  0  0  0  0  1  0  0  0 ]  [ 0  0  0  0  0  0  0  1  0  0  0 ]  [ 0  0  0  0  0  0  0  1  0  0  0 ]  [ 0  0  0  0  0  0  0  1  0  0  0 ]  [ 0  0  0  0  0  0  0  1  0  0  0 ]  [ 0  0  0  0  0  0  0  1  0  0  0 ]  [ 0  0  0  0  0  0  0  1  0  0  0 ]  [ 0  0  0  0  0  0  0  1  0  0  0 ]  [ 0  0  0  0  0  0  0  1  0  0  0 ]  [ 0  0  0  0  0  0  0  1  0  0  0 ]  [ 0  0  0  0  0  0  0  1  0  0  0 ]  [ 0  0  0  0  0  0  0  1  0  0  0 ]  [ 0  0  0  0  0  0  0  1  0  0  0 ]  [ 0  0  0  0  0  0  0  1  0  0  0 ]  [ 0  0  0  0  0  0  0  1  0  0  0 ]  [ 0  0  0  0  0  0  0  1  0  0  0 ]  [ 0  0  0  0  0  0  0  1  0  0  0 ]  [ 0  0  0  0  0  0  0  1  0  0  0 ]  [ 0  0  0  0  0  0  0  1  0  0  0 ]  [ 0  0  0  0  0  0  0  1  0  0  0 ]  [ 0  0  0  0  0  0  0  1  0  0  0 ]  [ 0  0  0  0  0  0  0  1  0  0  0 ]  [ 0  0  0  0  0  0  0  1  0  0  0 ]  [ 0  0  0  0  0  0  0  1  0  0  0 ]  [ 0  0  0  0  0  0  0  1  0  0  0 ]  [ 0  0  0  0  0  0  0  1  0  0  0 ]  [ 0  0  0  0  0  0  0  1  0  0  0 ]  [ 0  0  0  0  0  0  0  1  0  0  0 ]  [ 0  0  0  0  0  0  0  1  0  0  0 ]  [ 0  0  0  0  0  0  0  1  0  0  0 ]  [ 0  0  0  0  0  0  0  1  0  0  0 ]  [ 0  0  0  0  0  0  0  1  0  0  0 ] ];

ObjRequests = {  <1,5,138>, <2,5,3>, <3,5,73>, <4,5,138>, <5,5,90>, <6,5,66>, <7,5,91>, <8,5,5>, <9,5,39>, <10,5,4>, <11,5,22>, <12,5,41>, <13,5,11>, <14,5,77>, <15,5,13>, <16,5,21>, <17,5,7>, <18,5,32>, <19,5,11>, <20,5,6>, <21,5,6>, <22,5,11>, <23,5,17>, <24,5,2>, <25,5,30>, <26,5,7>, <27,5,16>, <28,5,2>, <29,5,20>, <30,5,1>, <31,5,12>, <33,5,17>, <34,5,24>, <35,5,9>, <36,5,17>, <37,5,18>, <38,5,26>, <39,5,12>, <40,5,9>, <41,5,11>, <42,5,6>, <43,5,20>, <44,5,4>, <45,5,1>, <46,5,13>, <47,5,1>, <48,5,5>, <49,5,1>, <50,5,7>, <51,5,9>, <52,5,7>, <53,5,1>, <54,5,1>, <55,5,3>, <56,5,5>, <57,5,1>, <58,5,7>, <59,5,6>, <60,5,6>, <61,5,2>, <62,5,2>, <63,5,1>, <64,5,7>, <65,5,4>, <66,5,3>, <67,5,2>, <68,5,5>, <69,5,5>, <70,5,5>, <72,5,13>, <73,5,4>, <74,5,1>, <75,5,1>, <76,5,12>, <78,5,8>, <79,5,8>, <80,5,4>, <81,5,6>, <82,5,1>, <84,5,3>, <85,5,3>, <86,5,1>, <87,5,2>, <88,5,2>, <89,5,1>, <90,5,2>, <91,5,10>, <92,5,9>, <93,5,1>, <94,5,1>, <95,5,2>, <96,5,3>, <98,5,8>, <99,5,10>, <1,6,387>, <2,6,136>, <3,6,10>, <4,6,155>, <5,6,15>, <6,6,67>, <7,6,24>, <8,6,69>, <9,6,18>, <10,6,2>, <11,6,5>, <12,6,60>, <13,6,4>, <14,6,17>, <15,6,32>, <16,6,9>, <17,6,42>, <18,6,5>, <19,6,37>, <20,6,17>, <21,6,12>, <22,6,26>, <23,6,12>, <24,6,24>, <25,6,1>, <26,6,2>, <27,6,5>, <28,6,21>, <29,6,9>, <30,6,9>, <31,6,5>, <32,6,5>, <33,6,4>, <34,6,5>, <35,6,6>, <36,6,5>, <38,6,3>, <39,6,3>, <40,6,13>, <41,6,12>, <42,6,10>, <43,6,9>, <44,6,9>, <45,6,13>, <46,6,11>, <47,6,23>, <48,6,12>, <51,6,3>, <52,6,6>, <53,6,1>, <54,6,4>, <55,6,6>, <56,6,11>, <57,6,15>, <58,6,3>, <59,6,5>, <61,6,3>, <62,6,7>, <63,6,13>, <64,6,8>, <65,6,9>, <66,6,1>, <67,6,5>, <68,6,2>, <69,6,8>, <70,6,8>, <71,6,9>, <72,6,4>, <74,6,6>, <75,6,2>, <77,6,2>, <78,6,2>, <79,6,1>, <80,6,7>, <81,6,4>, <83,6,1>, <84,6,2>, <85,6,1>, <87,6,4>, <88,6,1>, <89,6,1>, <90,6,1>, <91,6,2>, <92,6,1>, <93,6,4>, <94,6,4>, <96,6,2>, <97,6,6>, <98,6,1>, <99,6,1>, <100,6,2>, <1,7,5>, <2,7,18>, <3,7,307>, <4,7,46>, <5,7,53>, <6,7,80>, <7,7,7>, <8,7,48>, <9,7,52>, <10,7,2>, <11,7,36>, <12,7,17>, <13,7,1>, <14,7,2>, <15,7,7>, <16,7,39>, <17,7,11>, <18,7,3>, <19,7,35>, <20,7,22>, <21,7,42>, <22,7,20>, <23,7,4>, <24,7,12>, <25,7,9>, <26,7,9>, <27,7,20>, <28,7,2>, <29,7,10>, <30,7,3>, <31,7,3>, <32,7,5>, <33,7,2>, <34,7,7>, <35,7,19>, <36,7,9>, <37,7,1>, <38,7,4>, <39,7,12>, <40,7,8>, <41,7,9>, <42,7,18>, <43,7,5>, <44,7,1>, <45,7,16>, <46,7,4>, <47,7,1>, <48,7,10>, <49,7,12>, <50,7,15>, <51,7,3>, <52,7,1>, <53,7,3>, <54,7,1>, <55,7,2>, <56,7,7>, <58,7,6>, <59,7,5>, <60,7,3>, <62,7,1>, <63,7,18>, <64,7,4>, <65,7,6>, <66,7,2>, <67,7,4>, <68,7,3>, <69,7,3>, <70,7,11>, <71,7,1>, <72,7,5>, <73,7,15>, <74,7,10>, <75,7,10>, <76,7,8>, <77,7,7>, <78,7,1>, <80,7,4>, <81,7,1>, <82,7,3>, <83,7,3>, <84,7,7>, <86,7,2>, <87,7,8>, <88,7,3>, <89,7,7>, <90,7,7>, <91,7,2>, <92,7,5>, <93,7,1>, <94,7,3>, <95,7,5>, <96,7,1>, <97,7,11>, <99,7,3>, <100,7,4>, <1,1,755>, <2,1,209>, <3,1,51>, <4,1,29>, <5,1,82>, <6,1,9>, <7,1,17>, <8,1,20>, <9,1,14>, <10,1,79>, <11,1,34>, <12,1,13>, <13,1,21>, <14,1,7>, <15,1,17>, <16,1,27>, <17,1,17>, <18,1,38>, <19,1,3>, <20,1,24>, <21,1,19>, <22,1,15>, <23,1,16>, <24,1,24>, <25,1,4>, <26,1,7>, <27,1,12>, <28,1,16>, <29,1,20>, <30,1,30>, <31,1,20>, <32,1,29>, <33,1,16>, <34,1,3>, <35,1,2>, <36,1,18>, <37,1,17>, <38,1,1>, <39,1,2>, <40,1,12>, <41,1,2>, <42,1,1>, <43,1,1>, <44,1,6>, <45,1,1>, <47,1,6>, <48,1,6>, <49,1,2>, <50,1,13>, <51,1,2>, <52,1,10>, <53,1,3>, <54,1,10>, <55,1,7>, <56,1,1>, <57,1,12>, <58,1,5>, <59,1,6>, <60,1,1>, <61,1,3>, <62,1,1>, <64,1,7>, <65,1,1>, <66,1,14>, <67,1,5>, <68,1,5>, <69,1,5>, <70,1,3>, <71,1,5>, <72,1,6>, <73,1,3>, <74,1,1>, <76,1,4>, <77,1,1>, <78,1,4>, <79,1,6>, <80,1,7>, <81,1,7>, <83,1,6>, <84,1,7>, <85,1,15>, <86,1,4>, <88,1,9>, <89,1,6>, <90,1,1>, <91,1,2>, <92,1,1>, <93,1,6>, <94,1,5>, <95,1,4>, <96,1,5>, <99,1,2>, <1,10,336>, <2,10,399>, <3,10,70>, <4,10,26>, <5,10,64>, <6,10,68>, <7,10,104>, <8,10,36>, <9,10,49>, <10,10,72>, <11,10,41>, <12,10,1>, <13,10,87>, <14,10,12>, <15,10,23>, <16,10,12>, <17,10,19>, <18,10,7>, <19,10,6>, <20,10,5>, <21,10,2>, <22,10,5>, <23,10,7>, <24,10,1>, <25,10,16>, <26,10,21>, <27,10,8>, <28,10,24>, <29,10,3>, <30,10,3>, <31,10,4>, <32,10,9>, <33,10,8>, <34,10,1>, <35,10,13>, <36,10,1>, <37,10,1>, <38,10,4>, <39,10,10>, <41,10,4>, <42,10,4>, <43,10,7>, <44,10,6>, <45,10,4>, <46,10,2>, <47,10,7>, <48,10,1>, <49,10,19>, <50,10,1>, <51,10,21>, <52,10,10>, <53,10,19>, <54,10,9>, <55,10,8>, <56,10,1>, <57,10,7>, <59,10,4>, <60,10,4>, <61,10,11>, <62,10,8>, <64,10,2>, <65,10,3>, <66,10,7>, <67,10,3>, <68,10,2>, <69,10,3>, <71,10,5>, <72,10,1>, <73,10,2>, <74,10,4>, <75,10,6>, <76,10,2>, <77,10,15>, <78,10,6>, <79,10,5>, <81,10,3>, <82,10,6>, <83,10,2>, <84,10,4>, <86,10,14>, <88,10,6>, <89,10,3>, <90,10,2>, <91,10,2>, <92,10,5>, <93,10,3>, <94,10,3>, <95,10,4>, <96,10,3>, <97,10,5>, <98,10,8>, <99,10,1>, <100,10,1> };

MaxCacheStorageAtSingleAS= [ 131.25  131.25  131.25  131.25  131.25  131.25  131.25  131.25  131.25  131.25  131.25 ] ;

MaxCacheStorage = 1443.75 ;
SolutionGap = 0.01 ;
